\ This file has been generated by DOcplex
\ ENCODING=ISO-8859-1
\Problem name: random_problem.lp

Minimize
 obj: - 1232 x0 - 616 x1 - 308 x2 + 144 x3 + 72 x4 + 36 x5 + [ 7936 x0^2
      + 7936 x0*x1 + 3968 x0*x2 + 4992 x0*x3 + 2496 x0*x4 + 1248 x0*x5
      + 1984 x1^2 + 1984 x1*x2 + 2496 x1*x3 + 1248 x1*x4 + 624 x1*x5 + 496 x2^2
      + 1248 x2*x3 + 624 x2*x4 + 312 x2*x5 + 4416 x3^2 + 4416 x3*x4 + 2208 x3*x5
      + 1104 x4^2 + 1104 x4*x5 + 276 x5^2 ]/2
Subject To
 c0: 4 x0 + 2 x1 + x2 + 4 x3 + 2 x4 + x5 = 7

Bounds
 0 <= x0 <= 1
 0 <= x1 <= 1
 0 <= x2 <= 1
 0 <= x3 <= 1
 0 <= x4 <= 1
 0 <= x5 <= 1

Binaries
 x0 x1 x2 x3 x4 x5
End
